! Simple PI Calculator example (synthetic, not measured data)
! 0.1 uF 0402 series R-L-C (R = 30 mOhm, L = 0.45 nH, C = 100 nF), series-through fixture
! generated by tools/make_example_s2p.py from examples/cap_0402_100nF.mod
! f  S11(re im)  S21(re im)  S12(re im)  S22(re im)
# HZ S RI R 50
1.0000000000e+03 9.9606651168316307e-01 -6.2584630659687529e-02 3.9334883168369210e-03 6.2584630659687529e-02 3.9334883168369210e-03 6.2584630659687529e-02 9.9606651168316307e-01 -6.2584630659687529e-02
1.0774214221e+03 9.9543674938664706e-01 -6.7387376367281704e-02 4.5632506133528542e-03 6.7387376367281718e-02 4.5632506133528542e-03 6.7387376367281718e-02 9.9543674938664706e-01 -6.7387376367281704e-02
1.1608369209e+03 9.9470669638165898e-01 -7.2551338661812528e-02 5.2933036183410104e-03 7.2551338661812528e-02 5.2933036183410104e-03 7.2551338661812528e-02 9.9470669638165898e-01 -7.2551338661812528e-02
1.2507105661e+03 9.9386056619777652e-01 -7.8101853874382496e-02 6.1394338022234670e-03 7.8101853874382496e-02 6.1394338022234670e-03 7.8101853874382496e-02 9.9386056619777652e-01 -7.8101853874382496e-02
1.3475423568e+03 9.9288015119756456e-01 -8.4065575256908512e-02 7.1198488024353628e-03 8.4065575256908512e-02 7.1198488024353628e-03 8.4065575256908512e-02 9.9288015119756456e-01 -8.4065575256908512e-02
1.4518710024e+03 9.9174447320346060e-01 -9.0470419811026478e-02 8.2555267965393666e-03 9.0470419811026478e-02 8.2555267965393666e-03 9.0470419811026478e-02 9.9174447320346060e-01 -9.0470419811026478e-02
1.5642769202e+03 9.9042939133393382e-01 -9.7345474968873552e-02 9.5706086660661514e-03 9.7345474968873552e-02 9.5706086660661514e-03 9.7345474968873552e-02 9.9042939133393382e-01 -9.7345474968873552e-02
1.6853854640e+03 9.8890716454175975e-01 -1.0472085422781900e-01 1.1092835458240389e-02 1.0472085422781900e-01 1.1092835458240389e-02 1.0472085422781900e-01 9.8890716454175975e-01 -1.0472085422781900e-01
1.8158704034e+03 9.8714596731141402e-01 -1.1262748857412261e-01 1.2854032688585903e-02 1.1262748857412261e-01 1.2854032688585903e-02 1.1262748857412261e-01 9.8714596731141402e-01 -1.1262748857412261e-01
1.9564576724e+03 9.8510935848554104e-01 -1.2109683794896633e-01 1.4890641514459095e-02 1.2109683794896633e-01 1.4890641514459095e-02 1.2109683794896633e-01 9.8510935848554104e-01 -1.2109683794896633e-01
2.1079294077e+03 9.8275570543505453e-01 -1.3016050413989302e-01 1.7244294564945389e-02 1.3016050413989302e-01 1.7244294564945389e-02 1.3016050413989302e-01 9.8275570543505453e-01 -1.3016050413989302e-01
2.2711283002e+03 9.8003756898804439e-01 -1.3984972339099624e-01 1.9962431011955665e-02 1.3984972339099624e-01 1.9962431011955665e-02 1.3984972339099624e-01 9.8003756898804439e-01 -1.3984972339099624e-01
2.4469622831e+03 9.7690105895616164e-01 -1.5019471385210276e-01 2.3098941043838361e-02 1.5019471385210276e-01 2.3098941043838361e-02 1.5019471385210276e-01 9.7690105895616164e-01 -1.5019471385210276e-01
2.6364095829e+03 9.7328517604890130e-01 -1.6122384996187661e-01 2.6714823951098705e-02 1.6122384996187661e-01 2.6714823951098705e-02 1.6122384996187661e-01 9.7328517604890130e-01 -1.6122384996187661e-01
2.8405241621e+03 9.6912116377588564e-01 -1.7296263334589182e-01 3.0878836224114335e-02 1.7296263334589182e-01 3.0878836224114335e-02 1.7296263334589182e-01 9.6912116377588564e-01 -1.7296263334589182e-01
3.0604415823e+03 9.6433190393030721e-01 -1.8543242834852722e-01 3.5668096069692762e-02 1.8543242834852722e-01 3.5668096069692762e-02 1.8543242834852722e-01 9.6433190393030721e-01 -1.8543242834852722e-01
3.2973853219e+03 9.5883140169248171e-01 -1.9864893067309924e-01 4.1168598307518241e-02 1.9864893067309924e-01 4.1168598307518241e-02 1.9864893067309924e-01 9.5883140169248171e-01 -1.9864893067309924e-01
3.5526735829e+03 9.5252442142127569e-01 -2.1262034081729841e-01 4.7475578578724358e-02 2.1262034081729841e-01 4.7475578578724358e-02 2.1262034081729841e-01 9.5252442142127569e-01 -2.1262034081729841e-01
3.8277266240e+03 9.4530635167915911e-01 -2.2734522140744118e-01 5.4693648320840935e-02 2.2734522140744118e-01 5.4693648320840935e-02 2.2734522140744118e-01 9.4530635167915911e-01 -2.2734522140744118e-01
4.1240746627e+03 9.3706339739083577e-01 -2.4281003080930288e-01 6.2936602609164283e-02 2.4281003080930288e-01 6.2936602609164283e-02 2.4281003080930288e-01 9.3706339739083577e-01 -2.4281003080930288e-01
4.4433663880e+03 9.2767321702570615e-01 -2.5898634642175894e-01 7.2326782974293943e-02 2.5898634642175894e-01 7.2326782974293943e-02 2.5898634642175894e-01 9.2767321702570615e-01 -2.5898634642175894e-01
4.7873781328e+03 9.1700614114313439e-01 -2.7582782180756982e-01 8.2993858856865610e-02 2.7582782180756982e-01 8.2993858856865610e-02 2.7582782180756982e-01 9.1700614114313439e-01 -2.7582782180756982e-01
5.1580237561e+03 9.0492712215227078e-01 -2.9326696398400015e-01 9.5072877847729234e-02 2.9326696398400015e-01 9.5072877847729234e-02 2.9326696398400015e-01 9.0492712215227078e-01 -2.9326696398400015e-01
5.5573652906e+03 8.9129856888789627e-01 -3.1121187167187797e-01 1.0870143111210380e-01 3.1121187167187797e-01 1.0870143111210380e-01 3.1121187167187797e-01 8.9129856888789627e-01 -3.1121187167187797e-01
5.9876244147e+03 8.7598420729823512e-01 -3.2954314136323509e-01 1.2401579270176487e-01 3.2954314136323509e-01 1.2401579270176487e-01 3.2954314136323509e-01 8.7598420729823512e-01 -3.2954314136323509e-01
6.4511948120e+03 8.5885407275145043e-01 -3.4811122235997993e-01 1.4114592724854974e-01 3.4811122235997993e-01 1.4114592724854974e-01 3.4811122235997993e-01 8.5885407275145043e-01 -3.4811122235997993e-01
6.9506554888e+03 8.3979067253631012e-01 -3.6673457734639314e-01 1.6020932746368979e-01 3.6673457734639314e-01 1.6020932746368979e-01 3.6673457734639314e-01 8.3979067253631012e-01 -3.6673457734639314e-01
7.4887851214e+03 8.1869625286056191e-01 -3.8519906977446644e-01 1.8130374713943809e-01 3.8519906977446644e-01 1.8130374713943809e-01 3.8519906977446644e-01 8.1869625286056191e-01 -3.8519906977446644e-01
8.0685775155e+03 7.9550096085703659e-01 -4.0325903657743611e-01 2.0449903914296341e-01 4.0325903657743611e-01 2.0449903914296341e-01 4.0325903657743611e-01 7.9550096085703659e-01 -4.0325903657743611e-01
8.6932582613e+03 7.7017151386484484e-01 -4.2064049376783608e-01 2.2982848613515511e-01 4.2064049376783608e-01 2.2982848613515511e-01 4.2064049376783608e-01 7.7017151386484484e-01 -4.2064049376783608e-01
9.3663026787e+03 7.4271979114812758e-01 -4.3704684170878655e-01 2.5728020885187247e-01 4.3704684170878655e-01 2.5728020885187247e-01 4.3704684170878655e-01 7.4271979114812758e-01 -4.3704684170878655e-01
1.0091455152e+04 7.1321057542272315e-01 -4.5216726914904637e-01 2.8678942457727685e-01 4.5216726914904637e-01 2.8678942457727685e-01 4.5216726914904637e-01 7.1321057542272315e-01 -4.5216726914904637e-01
1.0872749961e+04 6.8176753307010707e-01 -4.6568779521173442e-01 3.1823246692989293e-01 4.6568779521173442e-01 3.1823246692989293e-01 4.6568779521173442e-01 6.8176753307010707e-01 -4.6568779521173442e-01
1.1714533726e+04 6.4857647928969619e-01 -4.7730455075305106e-01 3.5142352071030392e-01 4.7730455075305106e-01 3.5142352071030392e-01 4.7730455075305106e-01 6.4857647928969619e-01 -4.7730455075305106e-01
1.2621489586e+04 6.1388507042175045e-01 -4.8673852406787854e-01 3.8611492957824961e-01 4.8673852406787854e-01 3.8611492957824961e-01 4.8673852406787854e-01 6.1388507042175045e-01 -4.8673852406787854e-01
1.3598663259e+04 5.7799832494805981e-01 -4.9375064414946979e-01 4.2200167505194019e-01 4.9375064414946979e-01 4.2200167505194019e-01 4.9375064414946979e-01 5.7799832494805981e-01 -4.9375064414946979e-01
1.4651491108e+04 5.4126978962265648e-01 -4.9815582553276699e-01 4.5873021037734363e-01 4.9815582553276699e-01 4.5873021037734363e-01 4.9815582553276699e-01 5.4126978962265648e-01 -4.9815582553276699e-01
1.5785830386e+04 5.0408868946602092e-01 -4.9983452631105624e-01 4.9591131053397902e-01 4.9983452631105624e-01 4.9591131053397902e-01 4.9983452631105624e-01 5.0408868946602092e-01 -4.9983452631105624e-01
1.7007991824e+04 4.6686394406014753e-01 -4.9874052252416823e-01 5.3313605593985247e-01 4.9874052252416828e-01 5.3313605593985247e-01 4.9874052252416828e-01 4.6686394406014753e-01 -4.9874052252416823e-01
1.8324774738e+04 4.3000639129003804e-01 -4.9490397837571587e-01 5.6999360870996196e-01 4.9490397837571587e-01 5.6999360870996196e-01 4.9490397837571587e-01 4.3000639129003804e-01 -4.9490397837571587e-01
1.9743504858e+04 3.9391083415704359e-01 -4.8842943866481686e-01 6.0608916584295647e-01 4.8842943866481686e-01 6.0608916584295647e-01 4.8842943866481686e-01 3.9391083415704359e-01 -4.8842943866481686e-01
2.1272075082e+04 3.5893955383055998e-01 -4.7948898836473675e-01 6.4106044616944002e-01 4.7948898836473675e-01 6.4106044616944002e-01 4.7948898836473675e-01 3.5893955383055998e-01 -4.7948898836473675e-01
2.2918989387e+04 3.2540870629086782e-01 -4.6831139572960717e-01 6.7459129370913196e-01 4.6831139572960717e-01 6.7459129370913196e-01 4.6831139572960717e-01 3.2540870629086782e-01 -4.6831139572960717e-01
2.4693410139e+04 2.9357859269416364e-01 -4.5516847392416382e-01 7.0642140730583647e-01 4.5516847392416382e-01 7.0642140730583647e-01 4.5516847392416382e-01 2.9357859269416364e-01 -4.5516847392416382e-01
2.6605209069e+04 2.6364825876272174e-01 -4.4036009703924567e-01 7.3635174123727831e-01 4.4036009703924572e-01 7.3635174123727831e-01 4.4036009703924572e-01 2.6364825876272174e-01 -4.4036009703924567e-01
2.8665022191e+04 2.3575434349622923e-01 -4.2419927865650175e-01 7.6424565650377063e-01 4.2419927865650175e-01 7.6424565650377063e-01 4.2419927865650175e-01 2.3575434349622923e-01 -4.2419927865650175e-01
3.0884308974e+04 2.0997365443532062e-01 -4.0699850367390072e-01 7.9002634556467943e-01 4.0699850367390067e-01 7.9002634556467943e-01 4.0699850367390067e-01 2.0997365443532062e-01 -4.0699850367390072e-01
3.3275416096e+04 1.8632865258922496e-01 -3.8905816732445841e-01 8.1367134741077496e-01 3.8905816732445841e-01 8.1367134741077496e-01 3.8905816732445841e-01 1.8632865258922496e-01 -3.8905816732445841e-01
3.5851646132e+04 1.6479490080863579e-01 -3.7065759811833815e-01 8.3520509919136410e-01 3.7065759811833815e-01 8.3520509919136410e-01 3.7065759811833815e-01 1.6479490080863579e-01 -3.7065759811833815e-01
3.8627331561e+04 1.4530954590061168e-01 -3.5204879134866235e-01 8.5469045409938826e-01 3.5204879134866235e-01 8.5469045409938826e-01 3.5204879134866235e-01 1.4530954590061168e-01 -3.5204879134866235e-01
4.1617914503e+04 1.2778002695292939e-01 -3.3345270145987260e-01 8.7221997304707066e-01 3.3345270145987260e-01 8.7221997304707066e-01 3.3345270145987260e-01 1.2778002695292939e-01 -3.3345270145987260e-01
4.4840032630e+04 1.1209238337396690e-01 -3.1505775428111960e-01 8.8790761662603301e-01 3.1505775428111971e-01 8.8790761662603301e-01 3.1505775428111971e-01 1.1209238337396690e-01 -3.1505775428111960e-01
4.8311611724e+04 9.8118734073502037e-02 -2.9702014213370398e-01 9.0188126592649809e-01 2.9702014213370398e-01 9.0188126592649809e-01 2.9702014213370398e-01 9.8118734073502037e-02 -2.9702014213370398e-01
5.2051965408e+04 8.5723683144285204e-02 -2.7946544085438907e-01 9.1427631685571475e-01 2.7946544085438907e-01 9.1427631685571475e-01 2.7946544085438907e-01 8.5723683144285204e-02 -2.7946544085438907e-01
5.6081902595e+04 7.4769559210050268e-02 -2.6249111664348806e-01 9.2523044078994965e-01 2.6249111664348806e-01 9.2523044078994965e-01 2.6249111664348806e-01 7.4769559210050268e-02 -2.6249111664348806e-01
6.0423843249e+04 6.5120508241829675e-02 -2.4616955111280042e-01 9.3487949175817042e-01 2.4616955111280045e-01 9.3487949175817042e-01 2.4616955111280045e-01 6.5120508241829675e-02 -2.4616955111280042e-01
6.5101943124e+04 5.6645534042722059e-02 -2.3055128721276730e-01 9.4335446595727801e-01 2.3055128721276730e-01 9.4335446595727801e-01 2.3055128721276730e-01 5.6645534042722059e-02 -2.3055128721276730e-01
7.0142228143e+04 4.9220622352502214e-02 -2.1566827398629224e-01 9.5077937764749765e-01 2.1566827398629224e-01 9.5077937764749765e-01 2.1566827398629224e-01 4.9220622352502214e-02 -2.1566827398629224e-01
7.5572739197e+04 4.2730101147506666e-02 -2.0153695628713403e-01 9.5726989885249325e-01 2.0153695628713403e-01 9.5726989885249325e-01 2.0153695628713403e-01 4.2730101147506666e-02 -2.0153695628713403e-01
8.1423688139e+04 3.7067388784319047e-02 -1.8816111265765323e-01 9.6293261121568108e-01 1.8816111265765323e-01 9.6293261121568108e-01 1.8816111265765323e-01 3.7067388784319047e-02 -1.8816111265765323e-01
8.7727625870e+04 3.2135269733658323e-02 -1.7553438929697537e-01 9.6786473026634168e-01 1.7553438929697537e-01 9.6786473026634168e-01 1.7553438929697537e-01 3.2135269733658323e-02 -1.7553438929697537e-01
9.4519623424e+04 2.7845819916821862e-02 -1.6364251108840461e-01 9.7215418008317811e-01 1.6364251108840458e-01 9.7215418008317811e-01 1.6364251108840458e-01 2.7845819916821862e-02 -1.6364251108840461e-01
1.0183746709e+05 2.4120083774186868e-02 -1.5246517357659722e-01 9.7587991622581327e-01 1.5246517357659722e-01 9.7587991622581327e-01 1.5246517357659722e-01 2.4120083774186868e-02 -1.5246517357659722e-01
1.0972186862e+05 2.0887585575986356e-02 -1.4197763453435239e-01 9.7911241442401376e-01 1.4197763453435239e-01 9.7911241442401376e-01 1.4197763453435239e-01 2.0887585575986356e-02 -1.4197763453435239e-01
1.1821669172e+05 1.8085739544586549e-02 -1.3215203226591918e-01 9.8191426045541341e-01 1.3215203226591918e-01 9.8191426045541341e-01 1.3215203226591918e-01 1.8085739544586549e-02 -1.3215203226591918e-01
1.2736919611e+05 1.5659207788059164e-02 -1.2295846177199209e-01 9.8434079221194093e-01 1.2295846177199210e-01 9.8434079221194093e-01 1.2295846177199210e-01 1.5659207788059164e-02 -1.2295846177199209e-01
1.3723030041e+05 1.3559242057245242e-02 -1.1436584076442985e-01 9.8644075794275476e-01 1.1436584076442985e-01 9.8644075794275476e-01 1.1436584076442985e-01 1.3559242057245242e-02 -1.1436584076442985e-01
1.4785486543e+05 1.1743034846298864e-02 -1.0634259636836976e-01 9.8825696515370109e-01 1.0634259636836976e-01 9.8825696515370109e-01 1.0634259636836976e-01 1.1743034846298864e-02 -1.0634259636836976e-01
1.5930199938e+05 1.0173097111702117e-02 -9.8857201005944598e-02 9.8982690288829789e-01 9.8857201005944612e-02 9.8982690288829789e-01 9.8857201005944612e-02 1.0173097111702117e-02 -9.8857201005944598e-02
1.7163538672e+05 8.8166735682000379e-03 -9.1878583003056097e-02 9.9118332643179996e-01 9.1878583003056111e-02 9.9118332643179996e-01 9.1878583003056111e-02 8.8166735682000379e-03 -9.1878583003056097e-02
1.8492364244e+05 7.6452018001269577e-03 -8.5376434295666256e-02 9.9235479819987316e-01 8.5376434295666270e-02 9.9235479819987316e-01 8.5376434295666270e-02 7.6452018001269577e-03 -8.5376434295666256e-02
1.9924069382e+05 6.6338179911654381e-03 -7.9321434490708762e-02 9.9336618200883464e-01 7.9321434490708762e-02 9.9336618200883464e-01 7.9321434490708762e-02 6.6338179911654381e-03 -7.9321434490708762e-02
2.1466619169e+05 5.7609096490382778e-03 -7.3685407612294015e-02 9.9423909035096181e-01 7.3685407612294015e-02 9.9423909035096181e-01 7.3685407612294015e-02 5.7609096490382778e-03 -7.3685407612294015e-02
2.3128595353e+05 5.0077140506289957e-03 -6.8441425217963855e-02 9.9499228594937106e-01 6.8441425217963869e-02 9.9499228594937106e-01 6.8441425217963869e-02 5.0077140506289957e-03 -6.8441425217963855e-02
2.4919244097e+05 4.3579600661779573e-03 -6.3563867235637256e-02 9.9564203993382194e-01 6.3563867235637256e-02 9.9564203993382194e-01 6.3563867235637256e-02 4.3579600661779573e-03 -6.3563867235637256e-02
2.6848527413e+05 3.7975503854675591e-03 -5.9028449852028327e-02 9.9620244961453241e-01 5.9028449852028333e-02 9.9620244961453241e-01 5.9028449852028333e-02 3.7975503854675591e-03 -5.9028449852028327e-02
2.8927178587e+05 3.3142808444200501e-03 -5.4812228061486890e-02 9.9668571915558002e-01 5.4812228061486883e-02 9.9668571915558002e-01 5.4812228061486883e-02 3.3142808444200501e-03 -5.4812228061486890e-02
3.1166761891e+05 2.8975934451221492e-03 -5.0893579034147478e-02 9.9710240655487803e-01 5.0893579034147478e-02 9.9710240655487803e-01 5.0893579034147478e-02 2.8975934451221492e-03 -5.0893579034147478e-02
3.3579736920e+05 2.5383597062773127e-03 -4.7252171253208387e-02 9.9746164029372275e-01 4.7252171253208387e-02 9.9746164029372275e-01 4.7252171253208387e-02 2.5383597062773127e-03 -4.7252171253208387e-02
3.6179527907e+05 2.2286911226509581e-03 -4.3868923371496005e-02 9.9777130887734899e-01 4.3868923371496005e-02 9.9777130887734899e-01 4.3868923371496005e-02 2.2286911226509581e-03 -4.3868923371496005e-02
3.8980598409e+05 1.9617737133306628e-03 -4.0725955916890433e-02 9.9803822628666949e-01 4.0725955916890433e-02 9.9803822628666949e-01 4.0725955916890433e-02 1.9617737133306628e-03 -4.0725955916890433e-02
4.1998531773e+05 1.7317238723900117e-03 -3.7806538306899451e-02 9.9826827612761004e-01 3.7806538306899451e-02 9.9826827612761004e-01 3.7806538306899451e-02 1.7317238723900117e-03 -3.7806538306899451e-02
4.5250117830e+05 1.5334629827375979e-03 -3.5095033089886180e-02 9.9846653701726240e-01 3.5095033089886180e-02 9.9846653701726240e-01 3.5095033089886180e-02 1.5334629827375979e-03 -3.5095033089886180e-02
4.8753446304e+05 1.3626085015231071e-03 -3.2576838892623798e-02 9.9863739149847686e-01 3.2576838892623791e-02 9.9863739149847686e-01 3.2576838892623791e-02 1.3626085015231071e-03 -3.2576838892623798e-02
5.2528007450e+05 1.2153794648849538e-03 -3.0238333202450878e-02 9.9878462053511508e-01 3.0238333202450878e-02 9.9878462053511508e-01 3.0238333202450878e-02 1.2153794648849538e-03 -3.0238333202450878e-02
5.6594800488e+05 1.0885145857234804e-03 -2.8066815831691242e-02 9.9891148541427655e-01 2.8066815831691242e-02 9.9891148541427655e-01 2.8066815831691242e-02 1.0885145857234804e-03 -2.8066815831691242e-02
6.0976450427e+05 9.7920132754509745e-04 -2.6050453689058502e-02 9.9902079867245486e-01 2.6050453689058502e-02 9.9902079867245486e-01 2.6050453689058502e-02 9.7920132754509745e-04 -2.6050453689058502e-02
6.5697333935e+05 8.8501452884205082e-04 -2.4178227306593213e-02 9.9911498547115785e-01 2.4178227306593213e-02 9.9911498547115785e-01 2.4178227306593213e-02 8.8501452884205082e-04 -2.4178227306593213e-02
7.0783714958e+05 8.0386332565329701e-04 -2.2439879432280912e-02 9.9919613667434681e-01 2.2439879432280915e-02 9.9919613667434681e-01 2.2439879432280915e-02 8.0386332565329701e-04 -2.2439879432280912e-02
7.6263890833e+05 7.3394527533114174e-04 -2.0825865890496370e-02 9.9926605472466890e-01 2.0825865890496370e-02 9.9926605472466890e-01 2.0825865890496370e-02 7.3394527533114174e-04 -2.0825865890496370e-02
8.2168349718e+05 6.7370672301428748e-04 -1.9327308828775796e-02 9.9932629327698574e-01 1.9327308828775796e-02 9.9932629327698574e-01 1.9327308828775796e-02 6.7370672301428748e-04 -1.9327308828775796e-02
8.8529940207e+05 6.2180857504924548e-04 -1.7935952405241675e-02 9.9937819142495066e-01 1.7935952405241675e-02 9.9937819142495066e-01 1.7935952405241675e-02 6.2180857504924548e-04 -1.7935952405241675e-02
9.5384054078e+05 5.7709675191038956e-04 -1.6644120922311389e-02 9.9942290324808969e-01 1.6644120922311392e-02 9.9942290324808969e-01 1.6644120922311392e-02 5.7709675191038956e-04 -1.6644120922311389e-02
1.0276882319e+06 5.3857668838839373e-04 -1.5444679375907995e-02 9.9946142331161159e-01 1.5444679375907995e-02 9.9946142331161159e-01 1.5444679375907995e-02 5.3857668838839373e-04 -1.5444679375907995e-02
1.1072533163e+06 5.0539133227125023e-04 -1.4330996362671855e-02 9.9949460866772877e-01 1.4330996362671855e-02 9.9949460866772877e-01 1.4330996362671855e-02 5.0539133227125023e-04 -1.4330996362671855e-02
1.1929784427e+06 4.7680216569652472e-04 -1.3296909268569855e-02 9.9952319783430332e-01 1.3296909268569853e-02 9.9952319783430332e-01 1.3296909268569853e-02 4.7680216569652472e-04 -1.3296909268569855e-02
1.2853405303e+06 4.5217283699074167e-04 -1.2336691649152031e-02 9.9954782716300916e-01 1.2336691649152031e-02 9.9954782716300916e-01 1.2336691649152031e-02 4.5217283699074167e-04 -1.2336691649152031e-02
1.3848534221e+06 4.3095504622012144e-04 -1.1445022703186635e-02 9.9956904495377974e-01 1.1445022703186635e-02 9.9956904495377974e-01 1.1445022703186635e-02 4.3095504622012144e-04 -1.1445022703186635e-02
1.4920707435e+06 4.1267637584555450e-04 -1.0616958736452598e-02 9.9958732362415448e-01 1.0616958736452596e-02 9.9958732362415448e-01 1.0616958736452596e-02 4.1267637584555450e-04 -1.0616958736452598e-02
1.6075889824e+06 3.9692979969458976e-04 -9.8479065102446625e-03 9.9960307020030537e-01 9.8479065102446625e-03 9.9960307020030537e-01 9.8479065102446625e-03 3.9692979969458976e-04 -9.8479065102446625e-03
1.7320508076e+06 3.8336463973051392e-04 -9.1335983689845336e-03 9.9961663536026946e-01 9.1335983689845319e-03 9.9961663536026946e-01 9.1335983689845319e-03 3.8336463973051392e-04 -9.1335983689845336e-03
1.8661486443e+06 3.7167877152048917e-04 -8.4700690427025882e-03 9.9962832122847955e-01 8.4700690427025882e-03 9.9962832122847955e-01 8.4700690427025882e-03 3.7167877152048917e-04 -8.4700690427025882e-03
2.0106285262e+06 3.6161190650650128e-04 -7.8536340226482652e-03 9.9963838809349359e-01 7.8536340226482652e-03 9.9963838809349359e-01 7.8536340226482652e-03 3.6161190650650128e-04 -7.8536340226482652e-03
2.1662942461e+06 3.5293980271492413e-04 -7.2808694115765295e-03 9.9964706019728500e-01 7.2808694115765295e-03 9.9964706019728500e-01 7.2808694115765295e-03 3.5293980271492413e-04 -7.2808694115765295e-03
2.3340118273e+06 3.4546927588582763e-04 -6.7485931540903149e-03 9.9965453072411414e-01 6.7485931540903149e-03 9.9965453072411414e-01 6.7485931540903149e-03 3.4546927588582763e-04 -6.7485931540903149e-03
2.5147143423e+06 3.3903390058437891e-04 -6.2538475565986056e-03 9.9966096609941557e-01 6.2538475565986056e-03 9.9966096609941557e-01 6.2538475565986056e-03 3.3903390058437891e-04 -6.2538475565986056e-03
2.7094071029e+06 3.3349030604274798e-04 -5.7938830108262415e-03 9.9966650969395732e-01 5.7938830108262415e-03 9.9966650969395732e-01 5.7938830108262415e-03 3.3349030604274798e-04 -5.7938830108262415e-03
2.9191732539e+06 3.2871498459325271e-04 -5.3661428392676692e-03 9.9967128501540681e-01 5.3661428392676692e-03 9.9967128501540681e-01 5.3661428392676692e-03 3.2871498459325271e-04 -5.3661428392676692e-03
3.1451797986e+06 3.2460154187171042e-04 -4.9682491854284106e-03 9.9967539845812836e-01 4.9682491854284106e-03 9.9967539845812836e-01 4.9682491854284106e-03 3.2460154187171042e-04 -4.9682491854284106e-03
3.3886840915e+06 3.2105832773691626e-04 -4.5979898760773489e-03 9.9967894167226312e-01 4.5979898760773489e-03 9.9967894167226312e-01 4.5979898760773489e-03 3.2105832773691626e-04 -4.5979898760773489e-03
3.6510408330e+06 3.1800639527859470e-04 -4.2533061869950489e-03 9.9968199360472143e-01 4.2533061869950489e-03 9.9968199360472143e-01 4.2533061869950489e-03 3.1800639527859470e-04 -4.2533061869950489e-03
3.9337096065e+06 3.1537774255466119e-04 -3.9322814478132554e-03 9.9968462225744537e-01 3.9322814478132554e-03 9.9968462225744537e-01 3.9322814478132554e-03 3.1537774255466119e-04 -3.9322814478132554e-03
4.2382629985e+06 3.1311379796734483e-04 -3.6331304254759774e-03 9.9968688620203272e-01 3.6331304254759774e-03 9.9968688620203272e-01 3.6331304254759774e-03 3.1311379796734483e-04 -3.6331304254759774e-03
4.5663953471e+06 3.1116411559351567e-04 -3.3541894295980135e-03 9.9968883588440660e-01 3.3541894295980135e-03 9.9968883588440660e-01 3.3541894295980135e-03 3.1116411559351567e-04 -3.3541894295980135e-03
4.9199321689e+06 3.0948525144577552e-04 -3.0939070865444985e-03 9.9969051474855419e-01 3.0939070865444985e-03 9.9969051474855419e-01 3.0939070865444985e-03 3.0948525144577552e-04 -3.0939070865444985e-03
5.3008403142e+06 3.0803979565983166e-04 -2.8508357324001409e-03 9.9969196020434015e-01 2.8508357324001409e-03 9.9969196020434015e-01 2.8508357324001409e-03 3.0803979565983166e-04 -2.8508357324001409e-03
5.7112389097e+06 3.0679553906876392e-04 -2.6236233781405543e-03 9.9969320446093113e-01 2.6236233781405543e-03 9.9969320446093113e-01 2.6236233781405543e-03 3.0679553906876392e-04 -2.6236233781405543e-03
6.1534111482e+06 3.0572475561237860e-04 -2.4110062032614730e-03 9.9969427524438759e-01 2.4110062032614730e-03 9.9969427524438759e-01 2.4110062032614730e-03 3.0572475561237860e-04 -2.4110062032614730e-03
6.6298169902e+06 3.0480358460585296e-04 -2.2118015368701354e-03 9.9969519641539417e-01 2.2118015368701349e-03 9.9969519641539417e-01 2.2118015368701349e-03 3.0480358460585296e-04 -2.2118015368701354e-03
7.1431068500e+06 3.0401149911324062e-04 -2.0249012878017446e-03 9.9969598850088681e-01 2.0249012878017451e-03 9.9969598850088681e-01 2.0249012878017451e-03 3.0401149911324062e-04 -2.0249012878017446e-03
7.6961363407e+06 3.0333084858727931e-04 -1.8492657876994952e-03 9.9969666915141264e-01 1.8492657876994952e-03 9.9969666915141264e-01 1.8492657876994952e-03 3.0333084858727931e-04 -1.8492657876994952e-03
8.2919821611e+06 3.0274646558975637e-04 -1.6839180131960636e-03 9.9969725353441041e-01 1.6839180131960636e-03 9.9969725353441041e-01 1.6839180131960636e-03 3.0274646558975637e-04 -1.6839180131960636e-03
8.9339592122e+06 3.0224532783306823e-04 -1.5279381553654180e-03 9.9969775467216704e-01 1.5279381553654180e-03 9.9969775467216704e-01 1.5279381553654180e-03 3.0224532783306823e-04 -1.5279381553654180e-03
9.6256390396e+06 3.0181626801522118e-04 -1.3804585064829103e-03 9.9969818373198494e-01 1.3804585064829107e-03 9.9969818373198494e-01 1.3804585064829107e-03 3.0181626801522118e-04 -1.3804585064829103e-03
1.0370869703e+07 3.0144972498467572e-04 -1.2406586358471282e-03 9.9969855027501520e-01 1.2406586358471279e-03 9.9969855027501520e-01 1.2406586358471279e-03 3.0144972498467572e-04 -1.2406586358471282e-03
1.1173797184e+07 3.0113753069179318e-04 -1.1077608279849974e-03 9.9969886246930817e-01 1.1077608279849974e-03 9.9969886246930817e-01 1.1077608279849974e-03 3.0113753069179318e-04 -1.1077608279849974e-03
1.2038888452e+07 3.0087272818063281e-04 -9.8102575798946889e-04 9.9969912727181942e-01 9.8102575798946889e-04 9.9969912727181942e-01 9.8102575798946889e-04 3.0087272818063281e-04 -9.8102575798946889e-04
1.2970956317e+07 3.0064941656620530e-04 -8.5974838003291250e-04 9.9969935058343373e-01 8.5974838003291250e-04 9.9969935058343373e-01 8.5974838003291250e-04 3.0064941656620530e-04 -8.5974838003291250e-04
1.3975186202e+07 3.0046261954336803e-04 -7.4325400626489490e-04 9.9969953738045647e-01 7.4325400626489479e-04 9.9969953738045647e-01 7.4325400626489479e-04 3.0046261954336803e-04 -7.4325400626489490e-04
1.5057164992e+07 3.0030817449773907e-04 -6.3089455434612630e-04 9.9969969182550233e-01 6.3089455434612630e-04 9.9969969182550233e-01 6.3089455434612630e-04 3.0030817449773907e-04 -6.3089455434612630e-04
1.6222912119e+07 3.0018263974795938e-04 -5.2204494279555294e-04 9.9969981736025215e-01 5.2204494279555294e-04 9.9969981736025215e-01 5.2204494279555294e-04 3.0018263974795938e-04 -5.2204494279555294e-04
1.7478913046e+07 3.0008321785256903e-04 -4.1609961413980446e-04 9.9969991678214754e-01 4.1609961413980446e-04 9.9969991678214754e-01 4.1609961413980446e-04 3.0008321785256903e-04 -4.1609961413980446e-04
1.8832155351e+07 3.0000769327266890e-04 -3.1246916655717176e-04 9.9969999230672746e-01 3.1246916655717187e-04 9.9969999230672746e-01 3.1246916655717187e-04 3.0000769327266890e-04 -3.1246916655717176e-04
2.0290167600e+07 2.9995438300138745e-04 -2.1057707530559023e-04 9.9970004561699866e-01 2.1057707530559023e-04 9.9970004561699866e-01 2.1057707530559023e-04 2.9995438300138745e-04 -2.1057707530559023e-04
2.1861061231e+07 2.9992209906008332e-04 -1.0985648571890132e-04 9.9970007790093995e-01 1.0985648571890134e-04 9.9970007790093995e-01 1.0985648571890134e-04 2.9992209906008332e-04 -1.0985648571890132e-04
2.3553575680e+07 2.9991012202561831e-04 -9.7470599501138599e-06 9.9970008987797443e-01 9.7470599501138599e-06 9.9970008987797443e-01 9.7470599501138599e-06 2.9991012202561831e-04 -9.7470599501138599e-06
2.5377127006e+07 2.9991818499883064e-04 9.0308140063069870e-05 9.9970008181500125e-01 -9.0308140063069870e-05 9.9970008181500125e-01 -9.0308140063069870e-05 2.9991818499883064e-04 9.0308140063069870e-05
2.7341860268e+07 2.9994646765698713e-04 1.9086575073542920e-04 9.9970005353234304e-01 -1.9086575073542920e-04 9.9970005353234304e-01 -1.9086575073542920e-04 2.9994646765698713e-04 1.9086575073542920e-04
2.9458705973e+07 2.9999560025768931e-04 2.9248520329468641e-04 9.9970000439974249e-01 -2.9248520329468641e-04 9.9970000439974249e-01 -2.9248520329468641e-04 2.9999560025768931e-04 2.9248520329468641e-04
3.1739440884e+07 3.0006667768344965e-04 3.9573183577668226e-04 9.9969993332231655e-01 -3.9573183577668237e-04 9.9969993332231655e-01 -3.9573183577668237e-04 3.0006667768344965e-04 3.9573183577668226e-04
3.4196753534e+07 3.0016128383988515e-04 5.0118003785234327e-04 9.9969983871616019e-01 -5.0118003785234316e-04 9.9969983871616019e-01 -5.0118003785234316e-04 3.0016128383988515e-04 5.0118003785234327e-04
3.6844314825e+07 3.0028152695117389e-04 6.0941644596475871e-04 9.9969971847304884e-01 -6.0941644596475871e-04 9.9969971847304884e-01 -6.0941644596475871e-04 3.0028152695117389e-04 6.0941644596475871e-04
3.9696854076e+07 3.0043008653923457e-04 7.2104320653208710e-04 9.9969956991346076e-01 -7.2104320653208710e-04 9.9969956991346076e-01 -7.2104320653208710e-04 3.0043008653923457e-04 7.2104320653208710e-04
4.2770240972e+07 3.0061027313341653e-04 8.3668132534742070e-04 9.9969938972686645e-01 -8.3668132534742081e-04 9.9969938972686645e-01 -8.3668132534742081e-04 3.0061027313341653e-04 8.3668132534742070e-04
4.6081573853e+07 3.0082610204113490e-04 9.5697412178162773e-04 9.9969917389795893e-01 -9.5697412178162773e-04 9.9969917389795893e-01 -9.5697412178162773e-04 3.0082610204113490e-04 9.5697412178162773e-04
4.9649274834e+07 3.0108238282316693e-04 1.0825908069724130e-03 9.9969891761717677e-01 -1.0825908069724130e-03 9.9969891761717677e-01 -1.0825908069724130e-03 3.0108238282316693e-04 1.0825908069724130e-03
5.3493192299e+07 3.0138482646721620e-04 1.2142302058648366e-03 9.9969861517353265e-01 -1.2142302058648366e-03 9.9969861517353265e-01 -1.2142302058648366e-03 3.0138482646721620e-04 1.2142302058648366e-03
5.7634711321e+07 3.0174017264763864e-04 1.3526246437592163e-03 9.9969825982735239e-01 -1.3526246437592163e-03 9.9969825982735239e-01 -1.3526246437592163e-03 3.0174017264763864e-04 1.3526246437592163e-03
6.2096872635e+07 3.0215633990669511e-04 1.4985440189251758e-03 9.9969784366009329e-01 -1.4985440189251758e-03 9.9969784366009329e-01 -1.4985440189251758e-03 3.0215633990669511e-04 1.4985440189251758e-03
6.6904500824e+07 3.0264260210329750e-04 1.6528000838603491e-03 9.9969735739789656e-01 -1.6528000838603491e-03 9.9969735739789656e-01 -1.6528000838603491e-03 3.0264260210329750e-04 1.6528000838603491e-03
7.2084342424e+07 3.0320979506031324e-04 1.8162509589134453e-03 9.9969679020493973e-01 -1.8162509589134453e-03 9.9969679020493973e-01 -1.8162509589134453e-03 3.0320979506031324e-04 1.8162509589134453e-03
7.7665214727e+07 3.0387055801411064e-04 1.9898059032598262e-03 9.9969612944198605e-01 -1.9898059032598262e-03 9.9969612944198605e-01 -1.9898059032598262e-03 3.0387055801411064e-04 1.9898059032598262e-03
8.3678166101e+07 3.0463961524511109e-04 2.1744303696188301e-03 9.9969536038475482e-01 -2.1744303696188301e-03 9.9969536038475482e-01 -2.1744303696188301e-03 3.0463961524511109e-04 2.1744303696188301e-03
9.0156648721e+07 3.0553410416290328e-04 2.3711513706424856e-03 9.9969446589583699e-01 -2.3711513706424852e-03 9.9969446589583699e-01 -2.3711513706424852e-03 3.0553410416290328e-04 2.3711513706424856e-03
9.7136704679e+07 3.0657395715384721e-04 2.5810631865911138e-03 9.9969342604284628e-01 -2.5810631865911138e-03 9.9969342604284628e-01 -2.5810631865911138e-03 3.0657395715384721e-04 2.5810631865911138e-03
1.0465716650e+08 3.0778234569603510e-04 2.8053334457502806e-03 9.9969221765430405e-01 -2.8053334457502810e-03 9.9969221765430405e-01 -2.8053334457502810e-03 3.0778234569603510e-04 2.8053334457502806e-03
1.1275987316e+08 3.0918619663254795e-04 3.0452096110421267e-03 9.9969081380336755e-01 -3.0452096110421263e-03 9.9969081380336755e-01 -3.0452096110421263e-03 3.0918619663254795e-04 3.0452096110421267e-03
1.2148990290e+08 3.1081679209990054e-04 3.3020259084502812e-03 9.9968918320790023e-01 -3.3020259084502812e-03 9.9968918320790023e-01 -3.3020259084502812e-03 3.1081679209990054e-04 3.3020259084502812e-03
1.3089582396e+08 3.1271046647001892e-04 3.5772107352180127e-03 9.9968728953352992e-01 -3.5772107352180123e-03 9.9968728953352992e-01 -3.5772107352180123e-03 3.1271046647001892e-04 3.5772107352180127e-03
1.4102996480e+08 3.1490941582226702e-04 3.8722945883019493e-03 9.9968509058417765e-01 -3.8722945883019493e-03 9.9968509058417765e-01 -3.8722945883019493e-03 3.1490941582226702e-04 3.8722945883019493e-03
1.5194870523e+08 3.1746263796469422e-04 4.1889185562744109e-03 9.9968253736203527e-01 -4.1889185562744109e-03 9.9968253736203527e-01 -4.1889185562744109e-03 3.1746263796469422e-04 4.1889185562744109e-03
1.6371279008e+08 3.2042702392614798e-04 4.5288434207725776e-03 9.9967957297607390e-01 -4.5288434207725776e-03 9.9967957297607390e-01 -4.5288434207725776e-03 3.2042702392614798e-04 4.5288434207725776e-03
1.7638766711e+08 3.2386862520724112e-04 4.8939594166973249e-03 9.9967613137479272e-01 -4.8939594166973240e-03 9.9967613137479272e-01 -4.8939594166973240e-03 3.2386862520724112e-04 4.8939594166973249e-03
1.9004385114e+08 3.2786412498259917e-04 5.2862967036694354e-03 9.9967213587501758e-01 -5.2862967036694354e-03 9.9967213587501758e-01 -5.2862967036694354e-03 3.2786412498259917e-04 5.2862967036694354e-03
2.0475731636e+08 3.3250254597525701e-04 5.7080366047609198e-03 9.9966749745402472e-01 -5.7080366047609198e-03 9.9966749745402472e-01 -5.7080366047609198e-03 3.3250254597525701e-04 5.7080366047609198e-03
2.2060991899e+08 3.3788723297593118e-04 6.1615236722243867e-03 9.9966211276702410e-01 -6.1615236722243867e-03 9.9966211276702410e-01 -6.1615236722243867e-03 3.3788723297593118e-04 6.1615236722243867e-03
2.3768985265e+08 3.4413815407025917e-04 6.6492786438449433e-03 9.9965586184592969e-01 -6.6492786438449433e-03 9.9965586184592969e-01 -6.6492786438449433e-03 3.4413815407025917e-04 6.6492786438449433e-03
2.5609213907e+08 3.5139457169895244e-04 7.1740123576145400e-03 9.9964860542830092e-01 -7.1740123576145391e-03 9.9964860542830092e-01 -7.1740123576145391e-03 3.5139457169895244e-04 7.1740123576145400e-03
2.7591915667e+08 3.5981814286296541e-04 7.7386406966645314e-03 9.9964018185713710e-01 -7.7386406966645322e-03 9.9964018185713710e-01 -7.7386406966645322e-03 3.5981814286296541e-04 7.7386406966645314e-03
2.9728121017e+08 3.6959651727577926e-04 8.3463006407516922e-03 9.9963040348272425e-01 -8.3463006407516922e-03 9.9963040348272425e-01 -8.3463006407516922e-03 3.6959651727577926e-04 8.3463006407516922e-03
3.2029714423e+08 3.8094751326268552e-04 9.0003675050343481e-03 9.9961905248673721e-01 -9.0003675050343481e-03 9.9961905248673721e-01 -9.0003675050343481e-03 3.8094751326268552e-04 9.0003675050343481e-03
3.4509500464e+08 3.9412396394878735e-04 9.7044734513379513e-03 9.9960587603605111e-01 -9.7044734513379513e-03 9.9960587603605111e-01 -9.7044734513379513e-03 3.9412396394878735e-04 9.7044734513379513e-03
3.7181275067e+08 4.0941934103531225e-04 1.0462527361507021e-02 9.9959058065896467e-01 -1.0462527361507023e-02 9.9959058065896467e-01 -1.0462527361507023e-02 4.0941934103531225e-04 1.0462527361507021e-02
4.0059902259e+08 4.2717428055075125e-04 1.1278736166672377e-02 9.9957282571944939e-01 -1.1278736166672378e-02 9.9957282571944939e-01 -1.1278736166672378e-02 4.2717428055075125e-04 1.1278736166672377e-02
4.3161396862e+08 4.4778415473830334e-04 1.2157627730173318e-02 9.9955221584526166e-01 -1.2157627730173318e-02 9.9955221584526166e-01 -1.2157627730173318e-02 4.4778415473830334e-04 1.2157627730173318e-02
4.6503013588e+08 4.7170785711598602e-04 1.3104075385290022e-02 9.9952829214288408e-01 -1.3104075385290022e-02 9.9952829214288408e-01 -1.3104075385290022e-02 4.7170785711598602e-04 1.3104075385290022e-02
5.0103343033e+08 4.9947799419106911e-04 1.4123324231611558e-02 9.9950052200580897e-01 -1.4123324231611554e-02 9.9950052200580897e-01 -1.4123324231611554e-02 4.9947799419106911e-04 1.4123324231611558e-02
5.3982415103e+08 5.3171270786300058e-04 1.5221019295484918e-02 9.9946828729213699e-01 -1.5221019295484918e-02 9.9946828729213699e-01 -1.5221019295484918e-02 5.3171270786300058e-04 1.5221019295484918e-02
5.8161810450e+08 5.6912938781879740e-04 1.6403235660166056e-02 9.9943087061218105e-01 -1.6403235660166052e-02 9.9943087061218105e-01 -1.6403235660166052e-02 5.6912938781879740e-04 1.6403235660166056e-02
6.2664780529e+08 6.1256057390249156e-04 1.7676510669515772e-02 9.9938743942609742e-01 -1.7676510669515772e-02 9.9938743942609742e-01 -1.7676510669515772e-02 6.1256057390249156e-04 1.7676510669515772e-02
6.7516376954e+08 6.6297239530439822e-04 1.9047878304729687e-02 9.9933702760469556e-01 -1.9047878304729690e-02 9.9933702760469556e-01 -1.9047878304729690e-02 6.6297239530439822e-04 1.9047878304729687e-02
7.2743590875e+08 7.2148594733806087e-04 2.0524905825835816e-02 9.9927851405266188e-01 -2.0524905825835816e-02 9.9927851405266188e-01 -2.0524905825835816e-02 7.2148594733806087e-04 2.0524905825835816e-02
7.8375503130e+08 7.8940206852352044e-04 2.2115732757551469e-02 9.9921059793147637e-01 -2.2115732757551469e-02 9.9921059793147637e-01 -2.2115732757551469e-02 7.8940206852352044e-04 2.2115732757551469e-02
8.4443446042e+08 8.6823005174329433e-04 2.3829112281262770e-02 9.9913176994825692e-01 -2.3829112281262770e-02 9.9913176994825692e-01 -2.3829112281262770e-02 8.6823005174329433e-04 2.3829112281262770e-02
9.0981177724e+08 9.5972090454796816e-04 2.5674455069808737e-02 9.9904027909545201e-01 -2.5674455069808737e-02 9.9904027909545201e-01 -2.5674455069808737e-02 9.5972090454796816e-04 2.5674455069808737e-02
9.8025069890e+08 1.0659058665114284e-03 2.7661875567411967e-02 9.9893409413348866e-01 -2.7661875567411964e-02 9.9893409413348866e-01 -2.7661875567411964e-02 1.0659058665114284e-03 2.7661875567411967e-02
1.0561431020e+09 1.1891409971866945e-03 2.9802240671030031e-02 9.9881085900281330e-01 -2.9802240671030031e-02 9.9881085900281330e-01 -2.9802240671030031e-02 1.1891409971866945e-03 2.9802240671030031e-02
1.1379112030e+09 1.3321587680362125e-03 3.2107220708530775e-02 9.9866784123196395e-01 -3.2107220708530781e-02 9.9866784123196395e-01 -3.2107220708530781e-02 1.3321587680362125e-03 3.2107220708530775e-02
1.2260099066e+09 1.4981277270209859e-03 3.4589342529594010e-02 9.9850187227297904e-01 -3.4589342529594010e-02 9.9850187227297904e-01 -3.4589342529594010e-02 1.4981277270209859e-03 3.4589342529594010e-02
1.3209293371e+09 1.6907214565358413e-03 3.7262044422432618e-02 9.9830927854346418e-01 -3.7262044422432618e-02 9.9830927854346418e-01 -3.7262044422432618e-02 1.6907214565358413e-03 3.7262044422432618e-02
1.4231975649e+09 1.9141982150356325e-03 4.0139732437476122e-02 9.9808580178496420e-01 -4.0139732437476122e-02 9.9808580178496420e-01 -4.0139732437476122e-02 1.9141982150356325e-03 4.0139732437476122e-02
1.5333835443e+09 2.1734928405568667e-03 4.3237837531010771e-02 9.9782650715944321e-01 -4.3237837531010771e-02 9.9782650715944321e-01 -4.3237837531010771e-02 2.1734928405568667e-03 4.3237837531010771e-02
1.6521002790e+09 2.4743227002716516e-03 4.6572872728733519e-02 9.9752567729972841e-01 -4.6572872728733519e-02 9.9752567729972841e-01 -4.6572872728733519e-02 2.4743227002716516e-03 4.6572872728733519e-02
1.7800082320e+09 2.8233096930641481e-03 5.0162489240765717e-02 9.9717669030693590e-01 -5.0162489240765717e-02 9.9717669030693590e-01 -5.0162489240765717e-02 2.8233096930641481e-03 5.0162489240765717e-02
1.9178190008e+09 3.2281205492330793e-03 5.4025530123221595e-02 9.9677187945076706e-01 -5.4025530123221595e-02 9.9677187945076706e-01 -5.4025530123221595e-02 3.2281205492330793e-03 5.4025530123221595e-02
2.0662992752e+09 3.6976279179757399e-03 5.8182079661799016e-02 9.9630237208202421e-01 -5.8182079661799023e-02 9.9630237208202421e-01 -5.8182079661799023e-02 3.6976279179757399e-03 5.8182079661799016e-02
2.2262751036e+09 4.2420949814437501e-03 6.2653506132145126e-02 9.9575790501855632e-01 -6.2653506132145126e-02 9.9575790501855632e-01 -6.2653506132145126e-02 4.2420949814437501e-03 6.2653506132145126e-02
2.3986364881e+09 4.8733865718257495e-03 6.7462494948951457e-02 9.9512661342817421e-01 -6.7462494948951457e-02 9.9512661342817421e-01 -6.7462494948951457e-02 4.8733865718257495e-03 6.7462494948951457e-02
2.5843423362e+09 5.6052099773566920e-03 7.2633068426764855e-02 9.9439479002264330e-01 -7.2633068426764841e-02 9.9439479002264330e-01 -7.2633068426764841e-02 5.6052099773566920e-03 7.2633068426764855e-02
2.7844257951e+09 6.4533887789503860e-03 7.8190587413039053e-02 9.9354661122104970e-01 -7.8190587413039053e-02 9.9354661122104970e-01 -7.8190587413039053e-02 6.4533887789503860e-03 7.8190587413039053e-02
3.0000000000e+09 7.4361731257448199e-03 8.4161728888193718e-02 9.9256382687425526e-01 -8.4161728888193718e-02 9.9256382687425526e-01 -8.4161728888193718e-02 7.4361731257448199e-03 8.4161728888193718e-02
